p cnf 200 1110
-101 -79 0
-101 -80 0
-101 -71 0
-101 -62 0
-101 46 0
-101 -89 0
-101 45 0
-101 12 0
-101 57 0
-101 -41 0
101 79 80 71 62 -46 89 -45 -12 -57 41 0
-102 -13 0
-102 -8 0
-102 84 0
-102 -22 0
-102 -35 0
-102 -43 0
-102 17 0
-102 -61 0
-102 91 0
-102 92 0
102 13 8 -84 22 35 43 -17 61 -91 -92 0
-103 -39 0
-103 16 0
-103 -52 0
-103 6 0
-103 61 0
-103 40 0
-103 24 0
-103 95 0
-103 -25 0
-103 54 0
103 39 -16 52 -6 -61 -40 -24 -95 25 -54 0
-104 28 0
-104 56 0
-104 -67 0
-104 -10 0
-104 -89 0
-104 93 0
-104 29 0
-104 -24 0
-104 -59 0
-104 43 0
104 -28 -56 67 10 89 -93 -29 24 59 -43 0
-105 94 0
-105 -4 0
-105 42 0
-105 -37 0
-105 -100 0
-105 -47 0
-105 -57 0
-105 -86 0
-105 -28 0
-105 -27 0
105 -94 4 -42 37 100 47 57 86 28 27 0
-106 -8 0
-106 -95 0
-106 -99 0
-106 -41 0
-106 56 0
-106 67 0
-106 -4 0
-106 -17 0
-106 -40 0
-106 60 0
106 8 95 99 41 -56 -67 4 17 40 -60 0
-107 6 0
-107 63 0
-107 -19 0
-107 61 0
-107 20 0
-107 30 0
-107 78 0
-107 55 0
-107 33 0
-107 -45 0
107 -6 -63 19 -61 -20 -30 -78 -55 -33 45 0
-108 -35 0
-108 -46 0
-108 -19 0
-108 -84 0
-108 -33 0
-108 -75 0
-108 97 0
-108 50 0
-108 -65 0
-108 9 0
108 35 46 19 84 33 75 -97 -50 65 -9 0
-109 55 0
-109 -54 0
-109 -32 0
-109 -21 0
-109 27 0
-109 -63 0
-109 -74 0
-109 7 0
-109 79 0
-109 -57 0
109 -55 54 32 21 -27 63 74 -7 -79 57 0
-110 -42 0
-110 33 0
-110 -19 0
-110 -51 0
-110 -24 0
-110 49 0
-110 10 0
-110 -36 0
-110 73 0
-110 61 0
110 42 -33 19 51 24 -49 -10 36 -73 -61 0
101 102 103 104 105 106 107 108 109 110 0
-111 -53 0
-111 87 0
-111 -29 0
-111 16 0
-111 67 0
-111 -22 0
-111 13 0
-111 8 0
-111 76 0
-111 97 0
111 53 -87 29 -16 -67 22 -13 -8 -76 -97 0
-112 -99 0
-112 -10 0
-112 75 0
-112 54 0
-112 78 0
-112 -24 0
-112 -11 0
-112 93 0
-112 -77 0
-112 -97 0
112 99 10 -75 -54 -78 24 11 -93 77 97 0
-113 -26 0
-113 -85 0
-113 25 0
-113 87 0
-113 57 0
-113 -23 0
-113 60 0
-113 81 0
-113 -28 0
-113 83 0
113 26 85 -25 -87 -57 23 -60 -81 28 -83 0
-114 36 0
-114 4 0
-114 40 0
-114 -19 0
-114 -84 0
-114 16 0
-114 66 0
-114 -53 0
-114 74 0
-114 -58 0
114 -36 -4 -40 19 84 -16 -66 53 -74 58 0
-115 91 0
-115 -70 0
-115 -33 0
-115 40 0
-115 39 0
-115 7 0
-115 19 0
-115 42 0
-115 -52 0
-115 72 0
115 -91 70 33 -40 -39 -7 -19 -42 52 -72 0
-116 52 0
-116 -68 0
-116 -38 0
-116 -65 0
-116 19 0
-116 -39 0
-116 -74 0
-116 2 0
-116 6 0
-116 -59 0
116 -52 68 38 65 -19 39 74 -2 -6 59 0
-117 21 0
-117 -100 0
-117 -14 0
-117 72 0
-117 -7 0
-117 -81 0
-117 -89 0
-117 51 0
-117 94 0
-117 -78 0
117 -21 100 14 -72 7 81 89 -51 -94 78 0
-118 -62 0
-118 7 0
-118 -70 0
-118 -100 0
-118 -30 0
-118 22 0
-118 56 0
-118 29 0
-118 -14 0
-118 -31 0
118 62 -7 70 100 30 -22 -56 -29 14 31 0
-119 -25 0
-119 -1 0
-119 97 0
-119 99 0
-119 10 0
-119 27 0
-119 -60 0
-119 -58 0
-119 47 0
-119 -35 0
119 25 1 -97 -99 -10 -27 60 58 -47 35 0
-120 9 0
-120 -41 0
-120 14 0
-120 55 0
-120 -31 0
-120 -51 0
-120 -19 0
-120 25 0
-120 38 0
-120 49 0
120 -9 41 -14 -55 31 51 19 -25 -38 -49 0
111 112 113 114 115 116 117 118 119 120 0
-121 99 0
-121 -22 0
-121 -12 0
-121 -48 0
-121 -94 0
-121 -72 0
-121 -38 0
-121 30 0
-121 -82 0
-121 -14 0
121 -99 22 12 48 94 72 38 -30 82 14 0
-122 96 0
-122 18 0
-122 46 0
-122 31 0
-122 -19 0
-122 14 0
-122 -24 0
-122 -57 0
-122 -65 0
-122 61 0
122 -96 -18 -46 -31 19 -14 24 57 65 -61 0
-123 -28 0
-123 75 0
-123 20 0
-123 -40 0
-123 -21 0
-123 -7 0
-123 -82 0
-123 71 0
-123 -36 0
-123 25 0
123 28 -75 -20 40 21 7 82 -71 36 -25 0
-124 -85 0
-124 -16 0
-124 61 0
-124 -11 0
-124 -66 0
-124 55 0
-124 -43 0
-124 -23 0
-124 -73 0
-124 -70 0
124 85 16 -61 11 66 -55 43 23 73 70 0
-125 -21 0
-125 97 0
-125 -100 0
-125 -40 0
-125 -56 0
-125 3 0
-125 -52 0
-125 94 0
-125 -53 0
-125 -93 0
125 21 -97 100 40 56 -3 52 -94 53 93 0
-126 42 0
-126 -20 0
-126 82 0
-126 51 0
-126 96 0
-126 90 0
-126 -98 0
-126 -36 0
-126 -10 0
-126 30 0
126 -42 20 -82 -51 -96 -90 98 36 10 -30 0
-127 26 0
-127 -66 0
-127 96 0
-127 53 0
-127 -40 0
-127 -11 0
-127 -55 0
-127 -51 0
-127 -45 0
-127 -3 0
127 -26 66 -96 -53 40 11 55 51 45 3 0
-128 29 0
-128 -62 0
-128 -84 0
-128 8 0
-128 -76 0
-128 47 0
-128 -99 0
-128 92 0
-128 89 0
-128 42 0
128 -29 62 84 -8 76 -47 99 -92 -89 -42 0
-129 -19 0
-129 35 0
-129 6 0
-129 -44 0
-129 56 0
-129 92 0
-129 -54 0
-129 -88 0
-129 87 0
-129 -34 0
129 19 -35 -6 44 -56 -92 54 88 -87 34 0
-130 -57 0
-130 -96 0
-130 -78 0
-130 93 0
-130 -58 0
-130 -47 0
-130 -16 0
-130 48 0
-130 -30 0
-130 34 0
130 57 96 78 -93 58 47 16 -48 30 -34 0
121 122 123 124 125 126 127 128 129 130 0
-131 33 0
-131 -64 0
-131 -9 0
-131 -79 0
-131 -46 0
-131 -16 0
-131 38 0
-131 -50 0
-131 17 0
-131 62 0
131 -33 64 9 79 46 16 -38 50 -17 -62 0
-132 -84 0
-132 -35 0
-132 -86 0
-132 -69 0
-132 96 0
-132 -5 0
-132 66 0
-132 15 0
-132 -89 0
-132 -38 0
132 84 35 86 69 -96 5 -66 -15 89 38 0
-133 -13 0
-133 17 0
-133 -65 0
-133 -1 0
-133 22 0
-133 -54 0
-133 41 0
-133 -10 0
-133 76 0
-133 -16 0
133 13 -17 65 1 -22 54 -41 10 -76 16 0
-134 51 0
-134 -10 0
-134 63 0
-134 -68 0
-134 21 0
-134 82 0
-134 31 0
-134 92 0
-134 -29 0
-134 -52 0
134 -51 10 -63 68 -21 -82 -31 -92 29 52 0
-135 69 0
-135 44 0
-135 36 0
-135 55 0
-135 -1 0
-135 100 0
-135 17 0
-135 -14 0
-135 -70 0
-135 98 0
135 -69 -44 -36 -55 1 -100 -17 14 70 -98 0
-136 68 0
-136 -93 0
-136 -42 0
-136 -17 0
-136 -5 0
-136 61 0
-136 -77 0
-136 34 0
-136 -36 0
-136 -86 0
136 -68 93 42 17 5 -61 77 -34 36 86 0
-137 15 0
-137 8 0
-137 -53 0
-137 36 0
-137 71 0
-137 85 0
-137 39 0
-137 100 0
-137 -52 0
-137 57 0
137 -15 -8 53 -36 -71 -85 -39 -100 52 -57 0
-138 18 0
-138 -66 0
-138 35 0
-138 48 0
-138 -55 0
-138 3 0
-138 74 0
-138 68 0
-138 20 0
-138 -50 0
138 -18 66 -35 -48 55 -3 -74 -68 -20 50 0
-139 32 0
-139 82 0
-139 -46 0
-139 40 0
-139 99 0
-139 19 0
-139 -4 0
-139 5 0
-139 -76 0
-139 17 0
139 -32 -82 46 -40 -99 -19 4 -5 76 -17 0
-140 -99 0
-140 22 0
-140 -36 0
-140 -61 0
-140 29 0
-140 -94 0
-140 -26 0
-140 -60 0
-140 -92 0
-140 47 0
140 99 -22 36 61 -29 94 26 60 92 -47 0
131 132 133 134 135 136 137 138 139 140 0
-141 -85 0
-141 32 0
-141 64 0
-141 -97 0
-141 -40 0
-141 42 0
-141 39 0
-141 70 0
-141 -80 0
-141 89 0
141 85 -32 -64 97 40 -42 -39 -70 80 -89 0
-142 15 0
-142 -65 0
-142 -14 0
-142 41 0
-142 87 0
-142 -26 0
-142 -23 0
-142 93 0
-142 24 0
-142 -74 0
142 -15 65 14 -41 -87 26 23 -93 -24 74 0
-143 -91 0
-143 -45 0
-143 84 0
-143 38 0
-143 -59 0
-143 19 0
-143 -5 0
-143 86 0
-143 92 0
-143 36 0
143 91 45 -84 -38 59 -19 5 -86 -92 -36 0
-144 -88 0
-144 1 0
-144 43 0
-144 -5 0
-144 100 0
-144 -96 0
-144 -25 0
-144 68 0
-144 -42 0
-144 65 0
144 88 -1 -43 5 -100 96 25 -68 42 -65 0
-145 46 0
-145 98 0
-145 29 0
-145 -2 0
-145 -83 0
-145 71 0
-145 1 0
-145 -28 0
-145 -22 0
-145 7 0
145 -46 -98 -29 2 83 -71 -1 28 22 -7 0
-146 5 0
-146 47 0
-146 -30 0
-146 50 0
-146 -27 0
-146 -1 0
-146 -21 0
-146 -61 0
-146 -16 0
-146 -100 0
146 -5 -47 30 -50 27 1 21 61 16 100 0
-147 -27 0
-147 -69 0
-147 10 0
-147 -31 0
-147 -2 0
-147 -64 0
-147 -99 0
-147 -91 0
-147 62 0
-147 67 0
147 27 69 -10 31 2 64 99 91 -62 -67 0
-148 -72 0
-148 43 0
-148 -20 0
-148 44 0
-148 73 0
-148 -38 0
-148 1 0
-148 91 0
-148 -14 0
-148 65 0
148 72 -43 20 -44 -73 38 -1 -91 14 -65 0
-149 -81 0
-149 87 0
-149 57 0
-149 -60 0
-149 94 0
-149 8 0
-149 56 0
-149 -55 0
-149 32 0
-149 -96 0
149 81 -87 -57 60 -94 -8 -56 55 -32 96 0
-150 -1 0
-150 31 0
-150 43 0
-150 -67 0
-150 62 0
-150 -88 0
-150 86 0
-150 28 0
-150 -48 0
-150 65 0
150 1 -31 -43 67 -62 88 -86 -28 48 -65 0
141 142 143 144 145 146 147 148 149 150 0
-151 -25 0
-151 4 0
-151 72 0
-151 -6 0
-151 81 0
-151 -7 0
-151 30 0
-151 48 0
-151 -69 0
-151 70 0
151 25 -4 -72 6 -81 7 -30 -48 69 -70 0
-152 -28 0
-152 99 0
-152 49 0
-152 -40 0
-152 -51 0
-152 -69 0
-152 -87 0
-152 -45 0
-152 41 0
-152 -12 0
152 28 -99 -49 40 51 69 87 45 -41 12 0
-153 70 0
-153 63 0
-153 75 0
-153 -71 0
-153 -97 0
-153 78 0
-153 -1 0
-153 -31 0
-153 30 0
-153 53 0
153 -70 -63 -75 71 97 -78 1 31 -30 -53 0
-154 -58 0
-154 -83 0
-154 -69 0
-154 47 0
-154 -30 0
-154 -6 0
-154 21 0
-154 13 0
-154 93 0
-154 -34 0
154 58 83 69 -47 30 6 -21 -13 -93 34 0
-155 67 0
-155 60 0
-155 -39 0
-155 -4 0
-155 -100 0
-155 21 0
-155 36 0
-155 -1 0
-155 -17 0
-155 91 0
155 -67 -60 39 4 100 -21 -36 1 17 -91 0
-156 -3 0
-156 -8 0
-156 -46 0
-156 -41 0
-156 64 0
-156 26 0
-156 89 0
-156 22 0
-156 -7 0
-156 80 0
156 3 8 46 41 -64 -26 -89 -22 7 -80 0
-157 13 0
-157 -50 0
-157 48 0
-157 -93 0
-157 42 0
-157 -57 0
-157 -55 0
-157 78 0
-157 -17 0
-157 88 0
157 -13 50 -48 93 -42 57 55 -78 17 -88 0
-158 35 0
-158 83 0
-158 -82 0
-158 -96 0
-158 -65 0
-158 37 0
-158 59 0
-158 12 0
-158 95 0
-158 -3 0
158 -35 -83 82 96 65 -37 -59 -12 -95 3 0
-159 -28 0
-159 -79 0
-159 -71 0
-159 -40 0
-159 -51 0
-159 -93 0
-159 -11 0
-159 77 0
-159 -98 0
-159 33 0
159 28 79 71 40 51 93 11 -77 98 -33 0
-160 4 0
-160 -92 0
-160 73 0
-160 -18 0
-160 -33 0
-160 -5 0
-160 -76 0
-160 -95 0
-160 -7 0
-160 49 0
160 -4 92 -73 18 33 5 76 95 7 -49 0
151 152 153 154 155 156 157 158 159 160 0
-161 -74 0
-161 96 0
-161 33 0
-161 -83 0
-161 19 0
-161 27 0
-161 35 0
-161 44 0
-161 -4 0
-161 38 0
161 74 -96 -33 83 -19 -27 -35 -44 4 -38 0
-162 13 0
-162 -100 0
-162 82 0
-162 97 0
-162 -67 0
-162 -22 0
-162 36 0
-162 8 0
-162 65 0
-162 -72 0
162 -13 100 -82 -97 67 22 -36 -8 -65 72 0
-163 65 0
-163 -56 0
-163 27 0
-163 32 0
-163 -52 0
-163 -39 0
-163 76 0
-163 -53 0
-163 79 0
-163 -19 0
163 -65 56 -27 -32 52 39 -76 53 -79 19 0
-164 -52 0
-164 89 0
-164 -86 0
-164 39 0
-164 44 0
-164 -82 0
-164 11 0
-164 47 0
-164 81 0
-164 -79 0
164 52 -89 86 -39 -44 82 -11 -47 -81 79 0
-165 9 0
-165 14 0
-165 26 0
-165 -22 0
-165 -71 0
-165 19 0
-165 -57 0
-165 -97 0
-165 52 0
-165 6 0
165 -9 -14 -26 22 71 -19 57 97 -52 -6 0
-166 91 0
-166 -15 0
-166 -53 0
-166 -1 0
-166 -75 0
-166 -85 0
-166 56 0
-166 -10 0
-166 -4 0
-166 -51 0
166 -91 15 53 1 75 85 -56 10 4 51 0
-167 88 0
-167 1 0
-167 47 0
-167 62 0
-167 28 0
-167 84 0
-167 29 0
-167 49 0
-167 -83 0
-167 -36 0
167 -88 -1 -47 -62 -28 -84 -29 -49 83 36 0
-168 55 0
-168 50 0
-168 3 0
-168 -15 0
-168 -26 0
-168 -20 0
-168 -44 0
-168 -74 0
-168 -54 0
-168 88 0
168 -55 -50 -3 15 26 20 44 74 54 -88 0
-169 -63 0
-169 -85 0
-169 96 0
-169 21 0
-169 66 0
-169 80 0
-169 65 0
-169 -10 0
-169 47 0
-169 81 0
169 63 85 -96 -21 -66 -80 -65 10 -47 -81 0
-170 35 0
-170 20 0
-170 -34 0
-170 -37 0
-170 38 0
-170 87 0
-170 42 0
-170 -18 0
-170 -88 0
-170 95 0
170 -35 -20 34 37 -38 -87 -42 18 88 -95 0
161 162 163 164 165 166 167 168 169 170 0
-171 -46 0
-171 -25 0
-171 65 0
-171 -26 0
-171 68 0
-171 37 0
-171 -32 0
-171 -53 0
-171 -73 0
-171 -95 0
171 46 25 -65 26 -68 -37 32 53 73 95 0
-172 12 0
-172 -53 0
-172 -89 0
-172 90 0
-172 -18 0
-172 -2 0
-172 -77 0
-172 -54 0
-172 38 0
-172 -45 0
172 -12 53 89 -90 18 2 77 54 -38 45 0
-173 -1 0
-173 41 0
-173 -19 0
-173 49 0
-173 59 0
-173 -87 0
-173 66 0
-173 -15 0
-173 -71 0
-173 96 0
173 1 -41 19 -49 -59 87 -66 15 71 -96 0
-174 73 0
-174 20 0
-174 -47 0
-174 70 0
-174 -85 0
-174 51 0
-174 -55 0
-174 -74 0
-174 -95 0
-174 41 0
174 -73 -20 47 -70 85 -51 55 74 95 -41 0
-175 67 0
-175 14 0
-175 -20 0
-175 -26 0
-175 -5 0
-175 -74 0
-175 -78 0
-175 99 0
-175 -10 0
-175 28 0
175 -67 -14 20 26 5 74 78 -99 10 -28 0
-176 -11 0
-176 95 0
-176 -46 0
-176 33 0
-176 -49 0
-176 -69 0
-176 74 0
-176 31 0
-176 -63 0
-176 -86 0
176 11 -95 46 -33 49 69 -74 -31 63 86 0
-177 54 0
-177 -74 0
-177 32 0
-177 28 0
-177 -85 0
-177 38 0
-177 -52 0
-177 23 0
-177 -66 0
-177 -81 0
177 -54 74 -32 -28 85 -38 52 -23 66 81 0
-178 -68 0
-178 36 0
-178 74 0
-178 -62 0
-178 -82 0
-178 34 0
-178 -10 0
-178 -79 0
-178 56 0
-178 51 0
178 68 -36 -74 62 82 -34 10 79 -56 -51 0
-179 -16 0
-179 -56 0
-179 -43 0
-179 50 0
-179 -15 0
-179 70 0
-179 -90 0
-179 -76 0
-179 73 0
-179 -64 0
179 16 56 43 -50 15 -70 90 76 -73 64 0
-180 98 0
-180 56 0
-180 82 0
-180 -46 0
-180 -81 0
-180 40 0
-180 -43 0
-180 -94 0
-180 -89 0
-180 35 0
180 -98 -56 -82 46 81 -40 43 94 89 -35 0
171 172 173 174 175 176 177 178 179 180 0
-181 -35 0
-181 63 0
-181 -88 0
-181 -53 0
-181 54 0
-181 9 0
-181 76 0
-181 7 0
-181 -86 0
-181 -10 0
181 35 -63 88 53 -54 -9 -76 -7 86 10 0
-182 -44 0
-182 83 0
-182 18 0
-182 98 0
-182 36 0
-182 75 0
-182 49 0
-182 -37 0
-182 -12 0
-182 33 0
182 44 -83 -18 -98 -36 -75 -49 37 12 -33 0
-183 -2 0
-183 62 0
-183 27 0
-183 80 0
-183 -59 0
-183 -23 0
-183 29 0
-183 38 0
-183 -16 0
-183 -33 0
183 2 -62 -27 -80 59 23 -29 -38 16 33 0
-184 10 0
-184 -13 0
-184 15 0
-184 83 0
-184 22 0
-184 -73 0
-184 -75 0
-184 -92 0
-184 -97 0
-184 9 0
184 -10 13 -15 -83 -22 73 75 92 97 -9 0
-185 -27 0
-185 43 0
-185 54 0
-185 -22 0
-185 53 0
-185 -88 0
-185 46 0
-185 14 0
-185 -13 0
-185 62 0
185 27 -43 -54 22 -53 88 -46 -14 13 -62 0
-186 -67 0
-186 -99 0
-186 -1 0
-186 40 0
-186 -7 0
-186 -22 0
-186 16 0
-186 41 0
-186 32 0
-186 -23 0
186 67 99 1 -40 7 22 -16 -41 -32 23 0
-187 18 0
-187 -34 0
-187 -55 0
-187 -92 0
-187 11 0
-187 25 0
-187 23 0
-187 8 0
-187 -37 0
-187 -57 0
187 -18 34 55 92 -11 -25 -23 -8 37 57 0
-188 93 0
-188 87 0
-188 -52 0
-188 -62 0
-188 -83 0
-188 -29 0
-188 -17 0
-188 -64 0
-188 -82 0
-188 25 0
188 -93 -87 52 62 83 29 17 64 82 -25 0
-189 -82 0
-189 44 0
-189 42 0
-189 -59 0
-189 -25 0
-189 -4 0
-189 -98 0
-189 -8 0
-189 -54 0
-189 57 0
189 82 -44 -42 59 25 4 98 8 54 -57 0
-190 54 0
-190 -76 0
-190 84 0
-190 40 0
-190 -31 0
-190 27 0
-190 20 0
-190 -28 0
-190 67 0
-190 -74 0
190 -54 76 -84 -40 31 -27 -20 28 -67 74 0
181 182 183 184 185 186 187 188 189 190 0
-191 -62 0
-191 13 0
-191 98 0
-191 -55 0
-191 30 0
-191 28 0
-191 -32 0
-191 -36 0
-191 -83 0
-191 31 0
191 62 -13 -98 55 -30 -28 32 36 83 -31 0
-192 -26 0
-192 87 0
-192 81 0
-192 -79 0
-192 24 0
-192 -7 0
-192 -82 0
-192 -5 0
-192 -14 0
-192 2 0
192 26 -87 -81 79 -24 7 82 5 14 -2 0
-193 -80 0
-193 -64 0
-193 -79 0
-193 -45 0
-193 3 0
-193 -28 0
-193 8 0
-193 90 0
-193 -59 0
-193 -42 0
193 80 64 79 45 -3 28 -8 -90 59 42 0
-194 -71 0
-194 86 0
-194 -39 0
-194 52 0
-194 27 0
-194 42 0
-194 6 0
-194 91 0
-194 8 0
-194 -55 0
194 71 -86 39 -52 -27 -42 -6 -91 -8 55 0
-195 -44 0
-195 65 0
-195 33 0
-195 79 0
-195 45 0
-195 74 0
-195 -47 0
-195 -57 0
-195 31 0
-195 -37 0
195 44 -65 -33 -79 -45 -74 47 57 -31 37 0
-196 -80 0
-196 -19 0
-196 -51 0
-196 78 0
-196 -59 0
-196 -99 0
-196 -8 0
-196 79 0
-196 48 0
-196 -88 0
196 80 19 51 -78 59 99 8 -79 -48 88 0
-197 13 0
-197 53 0
-197 58 0
-197 -44 0
-197 85 0
-197 17 0
-197 26 0
-197 9 0
-197 -2 0
-197 -72 0
197 -13 -53 -58 44 -85 -17 -26 -9 2 72 0
-198 31 0
-198 -69 0
-198 -17 0
-198 -85 0
-198 58 0
-198 -84 0
-198 -74 0
-198 20 0
-198 28 0
-198 -62 0
198 -31 69 17 85 -58 84 74 -20 -28 62 0
-199 -54 0
-199 -15 0
-199 -89 0
-199 24 0
-199 -73 0
-199 -34 0
-199 53 0
-199 -81 0
-199 -70 0
-199 -44 0
199 54 15 89 -24 73 34 -53 81 70 44 0
-200 38 0
-200 90 0
-200 -16 0
-200 -93 0
-200 -19 0
-200 73 0
-200 -52 0
-200 67 0
-200 97 0
-200 -23 0
200 -38 -90 16 93 19 -73 52 -67 -97 23 0
191 192 193 194 195 196 197 198 199 200 0
